# Solution for model GasLib-40
# Objective value = 4.4201815995014336e+01
loadshed[innode_1] 0
loadshed[innode_2] 0
loadshed[innode_3] 0
loadshed[innode_4] 0
loadshed[innode_5] 0
loadshed[innode_6] 0
loadshed[innode_7] 0
loadshed[innode_8] 0
loadshed[source_1] -1.2796645788220329e-01
loadshed[source_2] 1.7224406511716728e-01
loadshed[source_3] 2.3532096527892565e-01
loadshed[sink_1] 0
loadshed[sink_2] 0
loadshed[sink_3] 0
loadshed[sink_4] 0
loadshed[sink_5] 0
loadshed[sink_6] 0
loadshed[sink_7] 0
loadshed[sink_8] 0
loadshed[sink_9] 0
loadshed[sink_10] 0
loadshed[sink_11] 0
loadshed[sink_12] 1
loadshed[sink_13] 0
loadshed[sink_14] 0
loadshed[sink_15] 0
loadshed[sink_16] 0
loadshed[sink_17] 0
loadshed[sink_18] 0
loadshed[sink_19] 0
loadshed[sink_20] 0
loadshed[sink_21] 1
loadshed[sink_22] 0
loadshed[sink_23] 0
loadshed[sink_24] 7.0278620096902922e-01
loadshed[sink_25] 0
loadshed[sink_26] 0
loadshed[sink_27] 0
loadshed[sink_28] 0
loadshed[sink_29] 0
flow[source_1,sink_3] 1.7832053065061359e+02
flow[innode_1,sink_16] 1.6354166666666970e+01
flow[innode_6,sink_13] -6.4091543432302487e+00
flow[sink_13,sink_14] -2.2763321009896917e+01
flow[sink_14,sink_10] -3.9117487676563584e+01
flow[sink_25,sink_26] 1.1580107227468898e+02
flow[sink_26,sink_9] 3.2708333333334551e+01
flow[sink_9,sink_18] 1.6354166666667879e+01
flow[sink_26,sink_4] 6.6738572274687712e+01
flow[sink_4,sink_20] 50.3844056080211
flow[sink_18,sink_6] 0
flow[sink_25,innode_8] -1.4561219731727724e+02
flow[sink_6,sink_7] -4.9062500000000313e+01
flow[sink_6,sink_22] 3.2708333333333641e+01
flow[sink_7,sink_24] 4.8606840049856661e+00
flow[sink_22,sink_1] 1.6354166666666970e+01
flow[sink_24,sink_21] 0
flow[sink_21,sink_12] 0
flow[sink_7,sink_5] -7.0277350671652641e+01
flow[sink_5,sink_17] -8.6631517338319313e+01
flow[sink_17,sink_4] 0
flow[sink_17,sink_8] -1.0298568400498598e+02
flow[sink_3,sink_23] 16.3541666666697
flow[sink_8,sink_20] -1.1933985067165266e+02
flow[sink_25,sink_20] 8.5309611730298542e+01
flow[sink_25,sink_15] -6.5443499011145221e+01
flow[sink_15,sink_29] -8.1797665677811892e+01
flow[sink_29,sink_28] 1.6354166666667879e+01
flow[sink_29,sink_2] 1.6354166666684250e+01
flow[sink_2,sink_15] 0
flow[sink_29,innode_7] -1.3086016567783116e+02
flow[innode_4,sink_19] 4.6931668660046171e+01
flow[sink_19,innode_3] 4.3031461778637549e+01
flow[innode_4,innode_5] 7.3956652349851439e+01
flow[sink_27,innode_5] -7.3956652349851439e+01
flow[sink_27,sink_19] 5.7602485683184767e+01
flow[sink_10,sink_11] 3.2708333333333641e+01
flow[sink_10,innode_2] -4.5148525897926341e+01
flow[sink_10,innode_3] -4.3031461778637549e+01
flow[innode_6,sink_25] 6.4091543432302487e+00
flow[sink_11,innode_1] 1.6354166666666970e+01
flow[sink_19,innode_2] 4.5148525897926341e+01
flow[source_3,innode_4] 1.2088832100989761e+02
flow[source_2,innode_7] 1.3086016567783116e+02
flow[sink_3,innode_8] 1.4561219731727724e+02
pressure[innode_1] 7.6573941149180214e+01
pressure[innode_2] 7.9111928520008220e+01
pressure[innode_3] 7.9016640220683868e+01
pressure[innode_4] 81.01325
pressure[innode_5] 8.0962378714767411e+01
pressure[innode_6] 7.4799370717567669e+01
pressure[innode_7] 81.01325
pressure[innode_8] 8.0417192586946811e+01
pressure[source_1] 81.01325
pressure[source_2] 81.01325
pressure[source_3] 81.01325
pressure[sink_1] 3.80378222248578
pressure[sink_2] 7.7098983713764426e+01
pressure[sink_3] 8.0417192586946811e+01
pressure[sink_4] 5.8158254397320050e+01
pressure[sink_5] 3.5806171585219595e+01
pressure[sink_6] 5.9048598328731536e+00
pressure[sink_7] 6.5783710105732851e+00
pressure[sink_8] 4.6145510844067509e+01
pressure[sink_9] 6.4685891035575125e+01
pressure[sink_10] 7.6725642456783760e+01
pressure[sink_11] 7.6573941149180214e+01
pressure[sink_12] 1.01325
pressure[sink_13] 7.4834703314392712e+01
pressure[sink_14] 7.4875440216346135e+01
pressure[sink_15] 75.1168354573461
pressure[sink_16] 7.5552291314362535e+01
pressure[sink_17] 4.2259593436331485e+01
pressure[sink_18] 6.4094148541775425e+01
pressure[sink_19] 7.9111928520008220e+01
pressure[sink_20] 5.4461820127215631e+01
pressure[sink_21] 1.01325
pressure[sink_22] 4.86755136484079
pressure[sink_23] 8.0252474575287025e+01
pressure[sink_24] 1.01325
pressure[sink_25] 7.4799370717567669e+01
pressure[sink_26] 6.6643569203459734e+01
pressure[sink_27] 8.0348675157463262e+01
pressure[sink_28] 77.2179709386109
pressure[sink_29] 7.7513253212228079e+01
interdiction[source_1,sink_3] 0
interdiction[innode_1,sink_16] 0
interdiction[innode_6,sink_13] 0
interdiction[sink_13,sink_14] 0
interdiction[sink_14,sink_10] 0
interdiction[sink_25,sink_26] 0
interdiction[sink_26,sink_9] 0
interdiction[sink_9,sink_18] 0
interdiction[sink_26,sink_4] 0
interdiction[sink_4,sink_20] 0
interdiction[sink_18,sink_6] 1
interdiction[sink_25,innode_8] 0
interdiction[sink_6,sink_7] 0
interdiction[sink_6,sink_22] 0
interdiction[sink_7,sink_24] 0
interdiction[sink_22,sink_1] 0
interdiction[sink_24,sink_21] 0
interdiction[sink_21,sink_12] 0
interdiction[sink_7,sink_5] 0
interdiction[sink_5,sink_17] 0
interdiction[sink_17,sink_4] 1
interdiction[sink_17,sink_8] 0
interdiction[sink_3,sink_23] 0
interdiction[sink_8,sink_20] 0
interdiction[sink_25,sink_20] 0
interdiction[sink_25,sink_15] 0
interdiction[sink_15,sink_29] 0
interdiction[sink_29,sink_28] 0
interdiction[sink_29,sink_2] 0
interdiction[sink_2,sink_15] 1
interdiction[sink_29,innode_7] 0
interdiction[innode_4,sink_19] 0
interdiction[sink_19,innode_3] 0
interdiction[innode_4,innode_5] 0
interdiction[sink_27,innode_5] 0
interdiction[sink_27,sink_19] 0
interdiction[sink_10,sink_11] 0
interdiction[sink_10,innode_2] 0
interdiction[sink_10,innode_3] 0
interdiction[innode_6,sink_25] 0
interdiction[sink_11,innode_1] 0
interdiction[sink_19,innode_2] 0
interdiction[source_3,innode_4] 0
interdiction[source_2,innode_7] 0
interdiction[sink_3,innode_8] 0
WCcheckFlow[source_1,sink_3] 39
WCcheckFlow[innode_1,sink_16] 1
WCcheckFlow[innode_6,sink_13] 13
WCcheckFlow[sink_13,sink_14] 12
WCcheckFlow[sink_14,sink_10] 11
WCcheckFlow[sink_25,sink_26] 15
WCcheckFlow[sink_26,sink_9] 2
WCcheckFlow[sink_9,sink_18] 1
WCcheckFlow[sink_26,sink_4] 12
WCcheckFlow[sink_4,sink_20] 11
WCcheckFlow[sink_18,sink_6] 0
WCcheckFlow[sink_25,innode_8] -36
WCcheckFlow[sink_6,sink_7] -3
WCcheckFlow[sink_6,sink_22] 2
WCcheckFlow[sink_7,sink_24] 3
WCcheckFlow[sink_22,sink_1] 1
WCcheckFlow[sink_24,sink_21] 2
WCcheckFlow[sink_21,sink_12] 1
WCcheckFlow[sink_7,sink_5] -7
WCcheckFlow[sink_5,sink_17] -8
WCcheckFlow[sink_17,sink_4] 0
WCcheckFlow[sink_17,sink_8] -9
WCcheckFlow[sink_3,sink_23] 1
WCcheckFlow[sink_8,sink_20] -10
WCcheckFlow[sink_25,sink_20] 0
WCcheckFlow[sink_25,sink_15] 6
WCcheckFlow[sink_15,sink_29] 5
WCcheckFlow[sink_29,sink_28] 1
WCcheckFlow[sink_29,sink_2] 1
WCcheckFlow[sink_2,sink_15] 0
WCcheckFlow[sink_29,innode_7] 2
WCcheckFlow[innode_4,sink_19] -4
WCcheckFlow[sink_19,innode_3] -5
WCcheckFlow[innode_4,innode_5] 2
WCcheckFlow[sink_27,innode_5] -1
WCcheckFlow[sink_27,sink_19] 0
WCcheckFlow[sink_10,sink_11] 3
WCcheckFlow[sink_10,innode_2] 1
WCcheckFlow[sink_10,innode_3] 6
WCcheckFlow[innode_6,sink_25] -14
WCcheckFlow[sink_11,innode_1] 2
WCcheckFlow[sink_19,innode_2] 0
WCcheckFlow[source_3,innode_4] -1
WCcheckFlow[source_2,innode_7] -1
WCcheckFlow[sink_3,innode_8] 37
